StudentsNr = 10;
InstructorsNr = 99;
DaysNr = 2;
SlotsPerDay = 40;
AvailabilitySlotsLenght = 10;
RoomNr = 2;
ProgrammNr = 2;
DegreeNr = 1;
RolesNr = 4;
CoursesNr = 8;
InstructorsProgramm = [{1}, {1, 2}, {1}, {2}, {1}, {1, 2}, {2}, {1}, {2}, {1, 2}, {1}, {1}, {2}, {1}, {2}, {1}, {2}, {2}, {2}, {2}, {1}, {2}, {1, 2}, {1}, {1}, {1, 2}, {1}, {1}, {2}, {1}, {1}, {1, 2}, {2}, {2}, {1, 2}, {1, 2}, {1, 2}, {1, 2}, {1, 2}, {1}, {2}, {1}, {2}, {1}, {2}, {1}, {1, 2}, {2}, {1}, {2}, {1, 2}, {1, 2}, {2}, {1}, {1, 2}, {2}, {1}, {2}, {1}, {1, 2}, {1}, {2}, {1}, {1}, {2}, {2}, {1}, {1}, {1}, {2}, {2}, {1}, {2}, {2}, {1, 2}, {1, 2}, {1, 2}, {1}, {1}, {1}, {1, 2}, {1, 2}, {1}, {2}, {1}, {1}, {1}, {1, 2}, {2}, {1}, {1, 2}, {2}, {2}, {1}, {1}, {2}, {1, 2}, {1}, {1, 2}];
InstructorRolesPerProgramm = [|{1, 5, 6, 10, 23, 24, 30, 31, 32, 35, 39, 46, 49, 51, 52, 57, 59, 64, 67, 78, 79, 81, 86, 87, 88, 98}, {3, 5, 10, 21, 23, 25, 27, 28, 35, 39, 40, 52, 63, 64, 72, 75, 77, 79, 80, 85, 86, 88, 94, 97, 98}, {1, 2, 6, 8, 11, 24, 25, 27, 38, 46, 52, 57, 60, 67, 69, 72, 80, 86, 87, 94}, {1, 2, 3, 5, 6, 11, 12, 21, 23, 25, 27, 31, 46, 47, 57, 59, 69, 72, 75, 77, 79, 87, 90, 98}|{4, 6, 7, 9, 10, 17, 20, 23, 29, 32, 35, 39, 50, 51, 52, 58, 62, 66, 70, 73, 81, 88, 89, 96}, {7, 10, 15, 22, 23, 33, 35, 39, 43, 48, 52, 53, 62, 66, 75, 77, 88, 92, 96, 97}, {2, 6, 7, 9, 15, 17, 20, 29, 33, 38, 43, 52, 56, 60, 70, 73, 84, 89, 92}, {2, 6, 7, 9, 15, 17, 18, 20, 22, 23, 34, 47, 48, 50, 62, 65, 71, 74, 75, 77, 89, 93, 96}|];
InstructorsAvailability = [|1, 1, 0, 1, 0, 0, 0, 0, |0, 0, 0, 0, 1, 0, 0, 1, |0, 1, 1, 0, 1, 1, 1, 1, |0, 1, 1, 1, 1, 1, 0, 1, |1, 1, 1, 1, 1, 1, 1, 1, |0, 0, 1, 1, 1, 1, 1, 1, |1, 1, 1, 1, 0, 1, 1, 1, |1, 1, 1, 1, 1, 1, 1, 1, |1, 1, 1, 0, 0, 1, 1, 1, |1, 1, 1, 1, 1, 0, 0, 1, |0, 1, 1, 1, 1, 0, 0, 1, |0, 1, 1, 0, 1, 1, 1, 0, |0, 1, 1, 0, 0, 0, 0, 1, |1, 1, 1, 1, 0, 0, 0, 1, |0, 0, 1, 1, 1, 1, 0, 1, |0, 1, 1, 1, 1, 1, 1, 1, |1, 1, 1, 1, 1, 1, 1, 1, |0, 1, 1, 1, 1, 1, 1, 1, |1, 1, 1, 1, 1, 1, 1, 1, |1, 1, 1, 1, 1, 1, 1, 1, |1, 0, 1, 1, 1, 1, 1, 1, |1, 1, 1, 1, 0, 1, 1, 1, |0, 0, 0, 0, 1, 1, 1, 1, |1, 1, 1, 0, 1, 1, 1, 1, |0, 1, 0, 0, 1, 0, 0, 0, |0, 0, 1, 1, 0, 0, 0, 0, |1, 1, 1, 1, 1, 1, 1, 1, |0, 0, 0, 1, 1, 1, 1, 1, |0, 1, 1, 1, 1, 1, 1, 0, |1, 1, 1, 1, 1, 1, 1, 0, |1, 0, 1, 0, 1, 1, 1, 0, |0, 1, 0, 0, 0, 0, 0, 0, |1, 1, 0, 1, 1, 1, 1, 1, |1, 1, 1, 1, 1, 1, 1, 0, |0, 1, 1, 1, 1, 1, 1, 0, |0, 0, 0, 1, 1, 1, 1, 1, |1, 1, 1, 1, 1, 1, 1, 1, |0, 0, 1, 1, 1, 1, 1, 1, |1, 1, 1, 1, 0, 1, 1, 1, |1, 0, 1, 1, 1, 1, 1, 1, |1, 1, 0, 0, 1, 1, 1, 1, |0, 1, 1, 1, 1, 1, 1, 1, |0, 0, 1, 1, 1, 1, 1, 1, |0, 1, 1, 1, 1, 0, 1, 1, |0, 1, 1, 1, 1, 1, 1, 1, |1, 1, 1, 1, 1, 1, 1, 1, |0, 1, 1, 1, 1, 1, 1, 1, |0, 0, 1, 0, 1, 1, 1, 1, |0, 1, 1, 0, 1, 1, 0, 1, |0, 1, 0, 1, 1, 0, 1, 0, |1, 1, 1, 1, 1, 1, 0, 0, |0, 1, 1, 1, 1, 1, 1, 0, |0, 1, 1, 1, 1, 1, 1, 1, |1, 1, 1, 1, 1, 0, 1, 1, |0, 0, 1, 1, 0, 0, 0, 1, |1, 1, 0, 1, 1, 1, 0, 0, |1, 0, 1, 0, 0, 0, 1, 1, |1, 0, 0, 1, 1, 1, 1, 0, |1, 0, 1, 1, 1, 1, 1, 1, |0, 1, 1, 1, 1, 1, 1, 1, |1, 1, 1, 1, 1, 1, 1, 1, |0, 1, 1, 0, 1, 1, 0, 1, |0, 0, 1, 1, 1, 1, 0, 0, |0, 0, 0, 0, 1, 1, 1, 1, |0, 1, 1, 0, 1, 1, 1, 1, |0, 0, 0, 1, 1, 1, 1, 0, |0, 1, 1, 0, 0, 1, 1, 1, |1, 1, 1, 1, 1, 1, 1, 1, |0, 0, 0, 0, 0, 0, 1, 1, |0, 1, 0, 1, 1, 1, 1, 1, |0, 0, 0, 1, 0, 0, 0, 0, |0, 1, 1, 1, 1, 1, 1, 0, |0, 0, 0, 0, 1, 0, 1, 1, |1, 1, 1, 1, 1, 1, 1, 1, |0, 1, 1, 1, 1, 1, 1, 1, |1, 1, 1, 1, 1, 1, 1, 1, |0, 1, 1, 1, 1, 1, 1, 1, |0, 1, 1, 1, 1, 1, 1, 1, |1, 1, 1, 0, 0, 0, 1, 1, |0, 1, 0, 1, 1, 0, 1, 1, |0, 1, 1, 1, 0, 0, 1, 1, |1, 0, 1, 1, 1, 1, 0, 0, |1, 1, 1, 1, 1, 1, 1, 1, |1, 1, 1, 1, 1, 1, 1, 1, |0, 1, 1, 1, 1, 0, 0, 1, |0, 0, 1, 1, 0, 1, 1, 1, |1, 0, 1, 1, 0, 1, 0, 1, |0, 0, 0, 0, 0, 1, 1, 1, |1, 0, 0, 0, 0, 1, 1, 1, |0, 0, 1, 1, 0, 1, 1, 1, |0, 1, 1, 1, 1, 0, 1, 1, |0, 0, 0, 1, 1, 1, 1, 1, |1, 1, 1, 1, 1, 1, 0, 1, |1, 1, 1, 1, 1, 1, 1, 1, |0, 0, 1, 1, 1, 1, 1, 1, |0, 1, 1, 1, 1, 1, 0, 1, |0, 0, 1, 1, 1, 1, 1, 1, |1, 1, 1, 1, 1, 1, 1, 1, |1, 1, 1, 0, 1, 1, 1, 1|];
StudentsProgramm = [1, 1, 1, 2, 1, 1, 2, 2, 1, 2];
StudentsDegree = [1, 1, 1, 1, 1, 1, 1, 1, 1, 1];
StudentsSupervisorId = [42, 28, 8, 2, 46, 64, 99, 33, 61, 71];
StudentsCourseIds = [{3, 4, 6}, {1, 6, 7}, {3, 4, 7}, {1, 2, 5}, {1, 4, 5}, {2, 4, 6}, {1, 2, 4}, {1, 2, 4}, {1, 3, 5}, {1, 2, 5}];
StudentsAvailability = [|1, 1, 1, 0, 0, 1, 1, 1, |1, 1, 1, 0, 0, 0, 1, 1, |1, 1, 0, 0, 1, 1, 1, 0, |0, 0, 0, 0, 0, 1, 1, 1, |1, 1, 1, 1, 1, 1, 1, 1, |0, 0, 0, 1, 1, 1, 1, 1, |1, 0, 0, 1, 1, 1, 1, 1, |0, 1, 1, 1, 1, 1, 1, 1, |1, 1, 1, 0, 0, 0, 1, 0, |0, 0, 1, 1, 1, 1, 1, 1|];
TheoryticalMinCard = [0, 0, 0, 0, 0, 0, 0, 0, 0, 0];
CoursesInstructorIds = [{4, 5, 12, 14, 16, 18, 22, 25, 29, 30, 32, 33, 34, 39, 43, 44, 45, 46, 47, 51, 56, 61, 62, 64, 66, 69, 70, 72, 73, 75, 77, 79, 80, 81, 84, 87, 88, 92, 93, 96, 97, 98, 99}, {2, 5, 6, 7, 9, 11, 17, 18, 19, 21, 23, 25, 26, 27, 30, 31, 32, 35, 38, 41, 50, 51, 54, 56, 57, 64, 70, 74, 75, 76, 81, 84, 85, 86, 89, 91, 98}, {1, 2, 4, 5, 6, 8, 9, 10, 14, 18, 19, 20, 21, 24, 25, 29, 30, 31, 32, 33, 34, 38, 41, 44, 45, 46, 49, 53, 54, 55, 57, 59, 60, 61, 65, 66, 67, 68, 70, 73, 75, 76, 78, 79, 82, 83, 84, 85, 86, 87, 89, 90, 92, 93, 94, 95, 97, 99}, {4, 5, 12, 16, 17, 18, 20, 21, 24, 28, 29, 31, 32, 34, 36, 40, 42, 43, 48, 52, 53, 59, 62, 64, 65, 66, 70, 72, 73, 75, 76, 78, 79, 82, 86, 87, 91, 94, 97, 98, 99}, {2, 3, 4, 5, 9, 12, 16, 20, 21, 28, 29, 32, 34, 36, 38, 39, 44, 48, 50, 59, 61, 62, 69, 70, 82, 83, 88, 89}, {2, 3, 4, 10, 11, 14, 17, 18, 19, 20, 21, 24, 25, 26, 27, 28, 29, 31, 34, 35, 39, 41, 46, 52, 53, 55, 57, 58, 59, 61, 62, 64, 69, 72, 73, 74, 76, 79, 83, 84, 86, 89, 90, 91, 92, 93, 94, 95}, {8, 13, 18, 22, 33, 42, 43, 49, 52, 55, 56, 61, 62, 65, 71, 73, 76, 93, 97}, {3, 5, 6, 9, 18, 21, 27, 29, 30, 33, 37, 41, 54, 55, 63, 64, 71, 72, 77, 82, 88}];
RolesDemands = [13, 16, 2, 10];
RolesContinuity = [];
ExamLen = [2, 2, 2, 2, 2, 2, 2, 2, 2, 2];
LunchTsMinLen = 0;
LunchStarts = [12..26, 56..64];
SupervisorAvailable = 0;
OptimalLunchLenght = [0, 2];
OptimalStartTs = [1, 1];
OptimalFinishTs = [1, 40];
MinimizeRooms = 100;
RolesSoftContinuity = [|1, 2, 3, 4|4, 2, 4, 4|];
SameDegreeInRoom = 10;
Mergeability = 1;
